9
0 75 16 34 13 59 56 90 69 
31 0 1 100 100 96 35 78 44 
18 41 0 49 20 28 4 66 55 
81 60 99 0 24 100 18 27 69 
21 11 8 84 0 16 75 15 51 
86 62 86 95 85 0 69 9 78 
25 8 53 34 48 50 0 28 69 
6 54 40 64 45 4 72 0 65 
58 43 72 73 73 2 97 72 0 
